data;
set K:= K1 K2 K3 K4 K5 K6 K7 ;

set F:= F1 F2 ;

set Q:= Q1 Q2 ;

param T:= 45;
param V: 
	K1  K2  K3  K4  K5  K6  K7  :=
Q1	1   1   1   1   0   0   0   
Q2	0   0   0   0   1   1   1   
; # if resorce k is of type q

param TF:= 
K1 6
K2 6
K3 6
K4 6
K5 12
K6 12
K7 12
; # number of continuous time slots resource can fly

param TR:= 
K1 2
K2 2
K3 2
K4 2
K5 4
K6 4
K7 4
; #  number of continuous time slots resource k needs to rest between flights

param P:= 
K1 36
K2 36
K3 36
K4 36
K5 36
K6 36
K7 36
; #  number of continuous time slots a pilot can be present including rest times for resource k 

param N:= 
K1 4
K2 4
K3 4
K4 4
K5 1
K6 2
K7 2
; # max number of flights resource k can fly in the total time period

param A: 
	K1  K2  K3  K4  K5  K6  K7  :=
1	1   1   1   1   1   1   1   
2	1   1   1   1   1   1   1   
3	1   1   1   1   1   1   1   
4	1   1   1   1   1   1   1   
5	1   1   1   1   1   1   1   
6	1   1   1   1   1   1   1   
7	1   1   1   1   1   1   1   
8	1   1   1   1   1   1   1   
9	1   1   1   1   1   1   1   
10	1   1   1   1   1   1   1   
11	1   1   1   1   1   1   1   
12	1   1   1   1   1   1   1   
13	1   1   1   1   1   1   1   
14	1   1   1   1   1   1   1   
15	1   1   1   1   1   1   1   
16	1   1   1   1   1   1   1   
17	1   1   1   1   1   1   1   
18	1   1   1   1   1   1   1   
19	1   1   1   1   1   1   1   
20	1   1   1   1   1   1   1   
21	1   1   1   1   1   1   1   
22	1   1   1   1   1   1   1   
23	1   1   1   1   1   1   1   
24	1   1   1   1   1   1   1   
25	1   1   1   1   1   1   1   
26	1   1   1   1   1   1   1   
27	1   1   1   1   1   1   1   
28	1   1   1   1   1   1   1   
29	1   1   1   1   1   1   1   
30	1   1   1   1   1   1   1   
31	1   1   1   1   1   1   1   
32	1   1   1   1   1   1   1   
33	1   1   1   1   1   1   1   
34	1   1   1   1   1   1   1   
35	1   1   1   1   1   1   1   
36	1   1   1   1   1   1   1   
37	1   1   1   1   0   1   1   
38	1   1   1   1   0   1   1   
39	1   1   1   1   0   1   1   
40	1   1   1   1   0   1   1   
41	1   1   1   1   0   1   1   
42	1   1   1   1   0   1   1   
43	1   1   1   1   0   1   1   
44	1   1   1   1   0   1   1   
45	1   1   1   1   0   1   1   
; # availability of resorce k in time slot t

param B: 
	F1  F2  :=
Q1	0   0   
Q2	0   0   
; # if front f requires resources of type q

param U: 
	F1  F2  :=
K1	0   0   
K2	0   0   
K3	0   0   
K4	0   0   
K5	0   0   
K6	0   0   
K7	2   2   
; # transit time of resource

param C:= 
K1 900
K2 900
K3 1500
K4 4500
K5 5500
K6 5500
K7 5500
; #  water capacity of resource k

param S:= 
F1 9
F2 9
; # max number of resources that can fly at front f in the same time slot

param D:= 

[*,*,F1 ]:  K1    K2    K3    K4    K5    K6    K7    :=
1           1.55  1.55  1.55  1.24  0.93  0.93  0.93  
2           1.55  1.55  1.55  1.24  0.93  0.93  0.93  
3           1.55  1.55  1.55  1.24  0.93  0.93  0.93  
4           1.55  1.55  1.55  1.24  0.93  0.93  0.93  
5           1.55  1.55  1.55  1.24  0.93  0.93  0.93  
6           1.55  1.55  1.55  1.24  0.93  0.93  0.93  
7           1.55  1.55  1.55  1.24  0.93  0.93  0.93  
8           1.55  1.55  1.55  1.24  0.93  0.93  0.93  
9           1.55  1.55  1.55  1.24  0.93  0.93  0.93  
10          1.55  1.55  1.55  1.24  0.93  0.93  0.93  
11          1.55  1.55  1.55  1.24  0.93  0.93  0.93  
12          1.55  1.55  1.55  1.24  0.93  0.93  0.93  
13          1.55  1.55  1.55  1.24  0.93  0.93  0.93  
14          1.55  1.55  1.55  1.24  0.93  0.93  0.93  
15          1.55  1.55  1.55  1.24  0.93  0.93  0.93  
16          1.55  1.55  1.55  1.24  0.93  0.93  0.93  
17          1.55  1.55  1.55  1.24  0.93  0.93  0.93  
18          1.55  1.55  1.55  1.24  0.93  0.93  0.93  
19          1.55  1.55  1.55  1.24  0.93  0.93  0.93  
20          1.55  1.55  1.55  1.24  0.93  0.93  0.93  
21          1.55  1.55  1.55  1.24  0.93  0.93  0.93  
22          1.55  1.55  1.55  1.24  0.93  0.93  0.93  
23          1.55  1.55  1.55  1.24  0.93  0.93  0.93  
24          1.55  1.55  1.55  1.24  0.93  0.93  0.93  
25          1.48  1.48  1.48  1.18  0.88  0.88  0.88  
26          1.48  1.48  1.48  1.18  0.88  0.88  0.88  
27          1.48  1.48  1.48  1.18  0.88  0.88  0.88  
28          1.48  1.48  1.48  1.18  0.88  0.88  0.88  
29          1.48  1.48  1.48  1.18  0.88  0.88  0.88  
30          1.48  1.48  1.48  1.18  0.88  0.88  0.88  
31          1.48  1.48  1.48  1.18  0.88  0.88  0.88  
32          1.48  1.48  1.48  1.18  0.88  0.88  0.88  
33          1.48  1.48  1.48  1.18  0.88  0.88  0.88  
34          1.55  1.55  1.55  1.24  0.93  0.93  0.93  
35          1.55  1.55  1.55  1.24  0.93  0.93  0.93  
36          1.55  1.55  1.55  1.24  0.93  0.93  0.93  
37          1.55  1.55  1.55  1.24  0.93  0.93  0.93  
38          1.55  1.55  1.55  1.24  0.93  0.93  0.93  
39          1.55  1.55  1.55  1.24  0.93  0.93  0.93  
40          1.55  1.55  1.55  1.24  0.93  0.93  0.93  
41          1.55  1.55  1.55  1.24  0.93  0.93  0.93  
42          1.55  1.55  1.55  1.24  0.93  0.93  0.93  
43          1.55  1.55  1.55  1.24  0.93  0.93  0.93  
44          1.55  1.55  1.55  1.24  0.93  0.93  0.93  
45          1.55  1.55  1.55  1.24  0.93  0.93  0.93  

[*,*,F2 ]:  K1    K2    K3    K4    K5    K6    K7    :=
1           1.74  1.74  1.74  1.38  1.04  1.04  1.04  
2           1.74  1.74  1.74  1.38  1.04  1.04  1.04  
3           1.74  1.74  1.74  1.38  1.04  1.04  1.04  
4           1.74  1.74  1.74  1.38  1.04  1.04  1.04  
5           1.74  1.74  1.74  1.38  1.04  1.04  1.04  
6           1.74  1.74  1.74  1.38  1.04  1.04  1.04  
7           1.74  1.74  1.74  1.38  1.04  1.04  1.04  
8           1.74  1.74  1.74  1.38  1.04  1.04  1.04  
9           1.74  1.74  1.74  1.38  1.04  1.04  1.04  
10          1.74  1.74  1.74  1.38  1.04  1.04  1.04  
11          1.74  1.74  1.74  1.38  1.04  1.04  1.04  
12          1.74  1.74  1.74  1.38  1.04  1.04  1.04  
13          1.74  1.74  1.74  1.38  1.04  1.04  1.04  
14          1.74  1.74  1.74  1.38  1.04  1.04  1.04  
15          1.74  1.74  1.74  1.38  1.04  1.04  1.04  
16          1.74  1.74  1.74  1.38  1.04  1.04  1.04  
17          1.74  1.74  1.74  1.38  1.04  1.04  1.04  
18          1.74  1.74  1.74  1.38  1.04  1.04  1.04  
19          1.74  1.74  1.74  1.38  1.04  1.04  1.04  
20          1.74  1.74  1.74  1.38  1.04  1.04  1.04  
21          1.74  1.74  1.74  1.38  1.04  1.04  1.04  
22          1.74  1.74  1.74  1.38  1.04  1.04  1.04  
23          1.74  1.74  1.74  1.38  1.04  1.04  1.04  
24          1.74  1.74  1.74  1.38  1.04  1.04  1.04  
25          1.65  1.65  1.65  1.31  0.99  0.99  0.99  
26          1.65  1.65  1.65  1.31  0.99  0.99  0.99  
27          1.65  1.65  1.65  1.31  0.99  0.99  0.99  
28          1.65  1.65  1.65  1.31  0.99  0.99  0.99  
29          1.65  1.65  1.65  1.31  0.99  0.99  0.99  
30          1.65  1.65  1.65  1.31  0.99  0.99  0.99  
31          1.65  1.65  1.65  1.31  0.99  0.99  0.99  
32          1.65  1.65  1.65  1.31  0.99  0.99  0.99  
33          1.65  1.65  1.65  1.31  0.99  0.99  0.99  
34          1.74  1.74  1.74  1.38  1.04  1.04  1.04  
35          1.74  1.74  1.74  1.38  1.04  1.04  1.04  
36          1.74  1.74  1.74  1.38  1.04  1.04  1.04  
37          1.74  1.74  1.74  1.38  1.04  1.04  1.04  
38          1.74  1.74  1.74  1.38  1.04  1.04  1.04  
39          1.74  1.74  1.74  1.38  1.04  1.04  1.04  
40          1.74  1.74  1.74  1.38  1.04  1.04  1.04  
41          1.74  1.74  1.74  1.38  1.04  1.04  1.04  
42          1.74  1.74  1.74  1.38  1.04  1.04  1.04  
43          1.74  1.74  1.74  1.38  1.04  1.04  1.04  
44          1.74  1.74  1.74  1.38  1.04  1.04  1.04  
45          1.74  1.74  1.74  1.38  1.04  1.04  1.04  
; # downloads resource k can do at front f in time t if intermediate time slot

param E:= 

[*,*,F1 ]:  K1    K2    K3    K4    K5    K6    K7    :=
1           0.31  0.76  0.05  0.04  0.10  0.13  0.27  
2           0.31  0.76  0.05  0.04  0.10  0.13  0.27  
3           0.31  0.76  0.05  0.04  0.10  0.13  0.27  
4           0.31  0.76  0.05  0.04  0.10  0.13  0.27  
5           0.31  0.76  0.05  0.04  0.10  0.13  0.27  
6           0.31  0.76  0.05  0.04  0.10  0.13  0.27  
7           0.31  0.76  0.05  0.04  0.10  0.13  0.27  
8           0.31  0.76  0.05  0.04  0.10  0.13  0.27  
9           0.31  0.76  0.05  0.04  0.10  0.13  0.27  
10          0.31  0.76  0.05  0.04  0.10  0.13  0.27  
11          0.31  0.76  0.05  0.04  0.10  0.13  0.27  
12          0.31  0.76  0.05  0.04  0.10  0.13  0.27  
13          0.31  0.76  0.05  0.04  0.10  0.13  0.27  
14          0.31  0.76  0.05  0.04  0.10  0.13  0.27  
15          0.31  0.76  0.05  0.04  0.10  0.13  0.27  
16          0.31  0.76  0.05  0.04  0.10  0.13  0.27  
17          0.31  0.76  0.05  0.04  0.10  0.13  0.27  
18          0.31  0.76  0.05  0.04  0.10  0.13  0.27  
19          0.31  0.76  0.05  0.04  0.10  0.13  0.27  
20          0.31  0.76  0.05  0.04  0.10  0.13  0.27  
21          0.31  0.76  0.05  0.04  0.10  0.13  0.27  
22          0.31  0.76  0.05  0.04  0.10  0.13  0.27  
23          0.31  0.76  0.05  0.04  0.10  0.13  0.27  
24          0.31  0.76  0.05  0.04  0.10  0.13  0.27  
25          0.30  0.72  0.04  0.04  0.10  0.12  0.26  
26          0.30  0.72  0.04  0.04  0.10  0.12  0.26  
27          0.30  0.72  0.04  0.04  0.10  0.12  0.26  
28          0.30  0.72  0.04  0.04  0.10  0.12  0.26  
29          0.30  0.72  0.04  0.04  0.10  0.12  0.26  
30          0.30  0.72  0.04  0.04  0.10  0.12  0.26  
31          0.30  0.72  0.04  0.04  0.10  0.12  0.26  
32          0.30  0.72  0.04  0.04  0.10  0.12  0.26  
33          0.30  0.72  0.04  0.04  0.10  0.12  0.26  
34          0.31  0.76  0.05  0.04  0.10  0.13  0.27  
35          0.31  0.76  0.05  0.04  0.10  0.13  0.27  
36          0.31  0.76  0.05  0.04  0.10  0.13  0.27  
37          0.31  0.76  0.05  0.04  0.10  0.13  0.27  
38          0.31  0.76  0.05  0.04  0.10  0.13  0.27  
39          0.31  0.76  0.05  0.04  0.10  0.13  0.27  
40          0.31  0.76  0.05  0.04  0.10  0.13  0.27  
41          0.31  0.76  0.05  0.04  0.10  0.13  0.27  
42          0.31  0.76  0.05  0.04  0.10  0.13  0.27  
43          0.31  0.76  0.05  0.04  0.10  0.13  0.27  
44          0.31  0.76  0.05  0.04  0.10  0.13  0.27  
45          0.31  0.76  0.05  0.04  0.10  0.13  0.27  

[*,*,F2 ]:  K1    K2    K3    K4    K5    K6    K7    :=
1           0.33  0.83  0.05  0.10  0.03  0.17  0.36  
2           0.33  0.83  0.05  0.10  0.03  0.17  0.36  
3           0.33  0.83  0.05  0.10  0.03  0.17  0.36  
4           0.33  0.83  0.05  0.10  0.03  0.17  0.36  
5           0.33  0.83  0.05  0.10  0.03  0.17  0.36  
6           0.33  0.83  0.05  0.10  0.03  0.17  0.36  
7           0.33  0.83  0.05  0.10  0.03  0.17  0.36  
8           0.33  0.83  0.05  0.10  0.03  0.17  0.36  
9           0.33  0.83  0.05  0.10  0.03  0.17  0.36  
10          0.33  0.83  0.05  0.10  0.03  0.17  0.36  
11          0.33  0.83  0.05  0.10  0.03  0.17  0.36  
12          0.33  0.83  0.05  0.10  0.03  0.17  0.36  
13          0.33  0.83  0.05  0.10  0.03  0.17  0.36  
14          0.33  0.83  0.05  0.10  0.03  0.17  0.36  
15          0.33  0.83  0.05  0.10  0.03  0.17  0.36  
16          0.33  0.83  0.05  0.10  0.03  0.17  0.36  
17          0.33  0.83  0.05  0.10  0.03  0.17  0.36  
18          0.33  0.83  0.05  0.10  0.03  0.17  0.36  
19          0.33  0.83  0.05  0.10  0.03  0.17  0.36  
20          0.33  0.83  0.05  0.10  0.03  0.17  0.36  
21          0.33  0.83  0.05  0.10  0.03  0.17  0.36  
22          0.33  0.83  0.05  0.10  0.03  0.17  0.36  
23          0.33  0.83  0.05  0.10  0.03  0.17  0.36  
24          0.33  0.83  0.05  0.10  0.03  0.17  0.36  
25          0.31  0.79  0.05  0.09  0.03  0.16  0.35  
26          0.31  0.79  0.05  0.09  0.03  0.16  0.35  
27          0.31  0.79  0.05  0.09  0.03  0.16  0.35  
28          0.31  0.79  0.05  0.09  0.03  0.16  0.35  
29          0.31  0.79  0.05  0.09  0.03  0.16  0.35  
30          0.31  0.79  0.05  0.09  0.03  0.16  0.35  
31          0.31  0.79  0.05  0.09  0.03  0.16  0.35  
32          0.31  0.79  0.05  0.09  0.03  0.16  0.35  
33          0.31  0.79  0.05  0.09  0.03  0.16  0.35  
34          0.33  0.83  0.05  0.10  0.03  0.17  0.36  
35          0.33  0.83  0.05  0.10  0.03  0.17  0.36  
36          0.33  0.83  0.05  0.10  0.03  0.17  0.36  
37          0.33  0.83  0.05  0.10  0.03  0.17  0.36  
38          0.33  0.83  0.05  0.10  0.03  0.17  0.36  
39          0.33  0.83  0.05  0.10  0.03  0.17  0.36  
40          0.33  0.83  0.05  0.10  0.03  0.17  0.36  
41          0.33  0.83  0.05  0.10  0.03  0.17  0.36  
42          0.33  0.83  0.05  0.10  0.03  0.17  0.36  
43          0.33  0.83  0.05  0.10  0.03  0.17  0.36  
44          0.33  0.83  0.05  0.10  0.03  0.17  0.36  
45          0.33  0.83  0.05  0.10  0.03  0.17  0.36  
; # downloads resource k can do at front f in time t if starting or ending flight

param W: 
	F1        F2        :=
1	168.59    168.59    
2	674.38    674.38    
3	674.38    674.38    
4	674.38    674.38    
5	674.38    674.38    
6	674.38    674.38    
7	674.38    674.38    
8	674.38    674.38    
9	674.38    674.38    
10	674.38    674.38    
11	674.38    674.38    
12	674.38    674.38    
13	674.38    674.38    
14	674.38    674.38    
15	674.38    674.38    
16	674.38    674.38    
17	674.38    674.38    
18	674.38    674.38    
19	674.38    674.38    
20	674.38    674.38    
21	674.38    674.38    
22	674.38    674.38    
23	674.38    674.38    
24	674.38    674.38    
25	674.38    674.38    
26	674.38    674.38    
27	674.38    674.38    
28	674.38    674.38    
29	674.38    674.38    
30	674.38    674.38    
31	674.38    674.38    
32	674.38    674.38    
33	674.38    674.38    
34	674.38    674.38    
35	674.38    674.38    
36	674.38    674.38    
37	674.38    674.38    
38	674.38    674.38    
39	674.38    674.38    
40	674.38    674.38    
41	674.38    674.38    
42	674.38    674.38    
43	674.38    674.38    
44	674.38    674.38    
45	168.59    168.59    
; # water needed at front f in time slot t

param M := 100000000; 

param a1:= 10000000;

param a2:= 100;

param a3:= 0.0001;
